3
Step 0 Initial geometry
O       0.00000000      0.00000000      0.11730000
H       0.75695000      0.00000000     -0.46920000
H      -0.75695000      0.00000000     -0.46920000
3
Step 1 Energy: -2066.755319 eV (-75.951857 Ha) MaxForce: 2.757108 eV/Å RMSForce: 0.030018 Ha/Bohr
O       0.00000000      0.00000000      0.11730000
H       0.75695000      0.00000000     -0.46920000
H      -0.75695000      0.00000000     -0.46920000
3
Step 2 Energy: -2066.916653 eV (-75.957786 Ha) MaxForce: 0.384842 eV/Å RMSForce: 0.003308 Ha/Bohr
O       0.00000000     -0.00000000      0.10664082
H       0.83012347     -0.00000000     -0.46400296
H      -0.83012347     -0.00000000     -0.46400296
3
Step 3 Energy: -2066.918857 eV (-75.957867 Ha) MaxForce: 0.086956 eV/Å RMSForce: 0.000747 Ha/Bohr
O       0.00000000     -0.00000000      0.11339804
H       0.82874000      0.00000000     -0.46753527
H      -0.82874000     -0.00000000     -0.46753527
3
Step 4 Energy: -2066.918981 eV (-75.957872 Ha) MaxForce: 0.001905 eV/Å RMSForce: 0.000018 Ha/Bohr
O       0.00000000     -0.00000000      0.11523912
H       0.82831941      0.00000000     -0.46868662
H      -0.82831941     -0.00000000     -0.46868662
3
Step 5 Energy: -2066.918981 eV (-75.957872 Ha) MaxForce: 0.001740 eV/Å RMSForce: 0.000018 Ha/Bohr
O       0.00000000     -0.00000000      0.11509079
H       0.82839004     -0.00000000     -0.46879823
H      -0.82839004     -0.00000000     -0.46879823
